projected/problems_b25_r0_d7_m100_s666/_DIMACS/b25_d7_r0_s666_029.cnf
p cnf 258 439 25
c p show 1 2 3 4 5 6 7 8 9 10 11 12 13 14 15 16 17 18 19 20 21 22 23 24 25
-83 -1 18 0
-84 11 0
-84 13 0
-85 84 83 0
-86 14 -20 0
-87 11 0
-87 -14 0
-88 87 0
-88 86 0
-89 88 0
-89 85 0
-90 -3 -21 0
-91 18 25 0
-92 91 0
-92 90 0
-93 -18 0
-93 -25 0
-94 3 0
-94 21 0
-95 94 0
-95 93 0
-96 95 92 0
-97 21 -4 0
-98 -5 0
-98 -13 0
-99 98 97 0
-100 99 0
-100 96 0
-101 -21 0
-101 4 0
-102 5 13 0
-103 102 0
-103 101 0
-104 93 94 0
-105 90 91 0
-106 105 0
-106 104 0
-107 106 0
-107 103 0
-108 107 100 0
-109 108 0
-109 89 0
-110 7 0
-110 -12 0
-111 20 0
-111 5 0
-112 111 110 0
-113 -21 -18 0
-114 17 0
-115 114 113 0
-116 115 0
-116 112 0
-117 -18 0
-117 -23 0
-118 19 -17 0
-119 118 117 0
-120 -22 -5 0
-121 2 0
-121 5 0
-122 121 0
-122 120 0
-123 122 119 0
-124 123 0
-124 116 0
-125 18 23 0
-126 -19 0
-126 17 0
-127 126 0
-127 125 0
-128 22 0
-128 5 0
-129 -2 -5 0
-130 129 128 0
-131 130 0
-131 127 0
-132 -7 12 0
-133 -20 -5 0
-134 133 0
-134 132 0
-135 21 0
-135 18 0
-136 -17 0
-137 136 0
-137 135 0
-138 137 134 0
-139 138 0
-139 131 0
-140 139 124 0
-141 140 109 0
-142 -12 0
-142 9 0
-143 -8 0
-143 -9 0
-144 143 142 0
-145 -4 0
-145 -21 0
-146 -5 8 0
-147 146 0
-147 145 0
-148 5 0
-148 -8 0
-149 4 21 0
-150 149 0
-150 148 0
-151 150 147 0
-152 151 144 0
-153 148 149 0
-154 145 146 0
-155 154 0
-155 153 0
-156 12 -9 0
-157 8 9 0
-158 157 0
-158 156 0
-159 158 155 0
-160 159 0
-160 152 0
-161 14 0
-161 -17 0
-162 17 0
-162 -14 0
-163 162 161 0
-164 1 0
-164 -8 0
-165 164 163 0
-166 -18 0
-166 12 0
-167 -25 0
-167 16 0
-168 167 166 0
-169 168 0
-169 165 0
-170 169 0
-170 160 0
-171 12 1 0
-172 7 -11 0
-173 172 171 0
-174 -3 0
-174 -1 0
-175 2 -12 0
-176 175 0
-176 174 0
-177 176 173 0
-178 3 -3 0
-179 2 0
-179 23 0
-180 179 178 0
-181 -12 0
-181 7 0
-182 9 0
-182 -23 0
-183 23 0
-183 -9 0
-184 183 182 0
-185 184 181 0
-186 -9 23 0
-187 -23 9 0
-188 187 0
-188 186 0
-189 12 -7 0
-190 189 188 0
-191 190 0
-191 185 0
-192 191 0
-192 180 0
-193 192 177 0
-194 -3 0
-194 3 0
-195 -2 -23 0
-196 195 0
-196 194 0
-197 188 0
-197 189 0
-198 181 0
-198 184 0
-199 198 197 0
-200 199 196 0
-201 -12 0
-201 -1 0
-202 -7 0
-202 11 0
-203 202 0
-203 201 0
-204 3 1 0
-205 -2 0
-205 12 0
-206 205 204 0
-207 206 0
-207 203 0
-208 207 200 0
-209 208 0
-209 193 0
-210 209 170 0
-211 210 0
-211 141 0
-212 15 13 0
-213 178 212 0
-214 -3 0
-214 -22 0
-215 -17 0
-215 6 0
-216 215 0
-216 214 0
-217 17 -6 0
-218 3 22 0
-219 218 0
-219 217 0
-220 219 216 0
-221 220 0
-221 213 0
-222 7 0
-222 13 0
-223 1 0
-223 17 0
-224 223 222 0
-225 -23 -16 0
-226 -8 19 0
-227 226 0
-227 225 0
-228 227 0
-228 224 0
-229 228 221 0
-230 20 0
-230 -10 0
-231 -9 14 0
-232 231 0
-232 230 0
-233 25 4 0
-234 18 0
-234 24 0
-235 234 0
-235 233 0
-236 235 0
-236 232 0
-237 17 -8 0
-238 -12 -9 0
-239 9 12 0
-240 239 0
-240 238 0
-241 240 237 0
-242 -24 -9 0
-243 -1 -18 0
-244 243 242 0
-245 244 241 0
-246 245 0
-246 236 0
-247 246 229 0
-248 15 3 0
-249 2 -18 0
-250 249 0
-250 248 0
-251 16 -20 0
-252 24 0
-252 6 0
-253 252 251 0
-254 253 250 0
-255 -16 0
-255 20 0
-256 -24 -6 0
-257 256 0
-257 255 0
-258 -15 0
-258 -3 0
-26 -2 0
-26 18 0
-42 26 258 0
-48 42 257 0
-54 48 0
-54 254 0
-60 23 0
-60 -5 0
-66 11 17 0
-72 66 60 0
-78 -11 0
-78 -17 0
-82 -23 5 0
-27 82 78 0
-28 27 0
-28 72 0
-29 23 -9 0
-30 5 0
-30 -18 0
-31 30 0
-31 29 0
-32 31 0
-32 28 0
-33 32 54 0
-34 16 0
-34 -19 0
-35 -24 23 0
-36 35 0
-36 34 0
-37 1 -9 0
-38 -22 17 0
-39 38 0
-39 37 0
-40 39 36 0
-41 21 0
-41 22 0
-43 -19 -5 0
-44 43 0
-44 41 0
-45 1 0
-45 9 0
-46 23 0
-46 13 0
-47 -13 0
-47 -23 0
-49 47 46 0
-50 49 45 0
-51 -23 -13 0
-52 13 23 0
-53 52 0
-53 51 0
-55 -1 -9 0
-56 55 53 0
-57 56 0
-57 50 0
-58 57 0
-58 44 0
-59 58 0
-59 40 0
-61 -21 -22 0
-62 19 0
-62 5 0
-63 62 61 0
-64 53 0
-64 55 0
-65 45 0
-65 49 0
-67 65 64 0
-68 67 63 0
-69 -16 19 0
-70 24 0
-70 -23 0
-71 70 69 0
-73 -1 0
-73 9 0
-74 22 0
-74 -17 0
-75 74 73 0
-76 75 0
-76 71 0
-77 76 0
-77 68 0
-79 77 59 0
-80 79 33 0
-81 80 0
-81 247 0
81 211 0
-101 -97 0
-102 -98 0
-103 -99 0
-99 -103 0
-91 -93 0
-90 -94 0
-94 -90 0
-106 -96 0
-117 -125 0
-126 -118 0
-118 -126 0
-119 -127 0
-127 -119 0
-120 -128 0
-121 -129 0
-122 -130 0
-130 -122 0
-131 -123 0
-123 -131 0
-110 -132 0
-133 -111 0
-111 -133 0
-112 -134 0
-134 -112 0
-113 -135 0
-136 -114 0
-114 -136 0
-115 -137 0
-137 -115 0
-138 -116 0
-146 -148 0
-145 -149 0
-149 -145 0
-155 -151 0
-156 -142 0
-142 -156 0
-143 -157 0
-144 -158 0
-194 -178 0
-178 -194 0
-179 -195 0
-180 -196 0
-196 -180 0
-188 -184 0
-189 -181 0
-181 -189 0
-191 -199 0
-199 -191 0
-200 -192 0
-201 -171 0
-202 -172 0
-203 -173 0
-174 -204 0
-204 -174 0
-205 -175 0
-206 -176 0
-207 -177 0
-177 -207 0
-215 -217 0
-218 -214 0
-255 -251 0
-252 -256 0
-256 -252 0
-257 -253 0
-248 -258 0
-249 -26 0
-250 -42 0
-78 -66 0
-82 -60 0
-60 -82 0
-61 -41 0
-43 -62 0
-62 -43 0
-63 -44 0
-53 -49 0
-45 -55 0
-57 -67 0
-67 -57 0
-68 -58 0
-58 -68 0
-34 -69 0
-35 -70 0
-36 -71 0
-73 -37 0
-37 -73 0
-38 -74 0
-39 -75 0
-40 -76 0
-76 -40 0
