projected/problems_b25_r0_d7_m100_s666/b25_d7_r0_s666_029.smt2
(set-logic QF_UF)
(declare-fun A0 () Bool)
(declare-fun A1 () Bool)
(declare-fun A2 () Bool)
(declare-fun A3 () Bool)
(declare-fun A4 () Bool)
(declare-fun A5 () Bool)
(declare-fun A6 () Bool)
(declare-fun A7 () Bool)
(declare-fun A8 () Bool)
(declare-fun A9 () Bool)
(declare-fun A10 () Bool)
(declare-fun A11 () Bool)
(declare-fun A12 () Bool)
(declare-fun A13 () Bool)
(declare-fun A14 () Bool)
(declare-fun A15 () Bool)
(declare-fun A16 () Bool)
(declare-fun A17 () Bool)
(declare-fun A18 () Bool)
(declare-fun A19 () Bool)
(declare-fun A20 () Bool)
(declare-fun A21 () Bool)
(declare-fun A22 () Bool)
(declare-fun A23 () Bool)
(declare-fun A24 () Bool)
(assert (let ((.def_0 (not A17))) (let ((.def_1 (and A0 .def_0))) (let ((.def_2 (and A10 A12))) (let ((.def_3 (not .def_2))) (let ((.def_4 (and .def_3 .def_1))) (let ((.def_5 (not A19))) (let ((.def_6 (or A13 .def_5))) (let ((.def_7 (not A13))) (let ((.def_8 (and A10 .def_7))) (let ((.def_9 (and .def_8 .def_6))) (let ((.def_10 (not .def_9))) (let ((.def_11 (or .def_10 .def_4))) (let ((.def_12 (not .def_11))) (let ((.def_13 (not A20))) (let ((.def_14 (and .def_13 A3))) (let ((.def_15 (or A4 A12))) (let ((.def_16 (and .def_15 .def_14))) (let ((.def_17 (not .def_16))) (let ((.def_18 (or A17 A24))) (let ((.def_19 (not A2))) (let ((.def_20 (or .def_19 .def_13))) (let ((.def_21 (not .def_20))) (let ((.def_22 (= .def_21 .def_18))) (let ((.def_23 (= .def_22 .def_17))) (let ((.def_24 (not .def_23))) (let ((.def_25 (and .def_24 .def_12))) (let ((.def_26 (not .def_25))) (let ((.def_27 (not A22))) (let ((.def_28 (and .def_0 .def_27))) (let ((.def_29 (not A18))) (let ((.def_30 (and .def_29 A16))) (let ((.def_31 (not .def_30))) (let ((.def_32 (or .def_31 .def_28))) (let ((.def_33 (not .def_32))) (let ((.def_34 (not A4))) (let ((.def_35 (not A21))) (let ((.def_36 (or .def_35 .def_34))) (let ((.def_37 (and A1 A4))) (let ((.def_38 (and .def_37 .def_36))) (let ((.def_39 (not .def_38))) (let ((.def_40 (and .def_39 .def_33))) (let ((.def_41 (not .def_40))) (let ((.def_42 (not A11))) (let ((.def_43 (and A6 .def_42))) (let ((.def_44 (or .def_5 .def_34))) (let ((.def_45 (not .def_44))) (let ((.def_46 (or .def_45 .def_43))) (let ((.def_47 (not .def_46))) (let ((.def_48 (or .def_13 .def_0))) (let ((.def_49 (not A16))) (let ((.def_50 (or .def_49 .def_49))) (let ((.def_51 (not .def_50))) (let ((.def_52 (or .def_51 .def_48))) (let ((.def_53 (not .def_52))) (let ((.def_54 (or .def_53 .def_47))) (let ((.def_55 (= .def_54 .def_41))) (let ((.def_56 (and .def_55 .def_26))) (let ((.def_57 (or .def_34 A7))) (let ((.def_58 (not A3))) (let ((.def_59 (and .def_58 .def_13))) (let ((.def_60 (not .def_59))) (let ((.def_61 (= .def_60 .def_57))) (let ((.def_62 (not A8))) (let ((.def_63 (or A11 .def_62))) (let ((.def_64 (not .def_63))) (let ((.def_65 (not A7))) (let ((.def_66 (and .def_65 .def_62))) (let ((.def_67 (or .def_66 .def_64))) (let ((.def_68 (= .def_67 .def_61))) (let ((.def_69 (not .def_68))) (let ((.def_70 (= A16 A13))) (let ((.def_71 (and A0 .def_65))) (let ((.def_72 (not .def_71))) (let ((.def_73 (and .def_72 .def_70))) (let ((.def_74 (or A17 .def_42))) (let ((.def_75 (not A15))) (let ((.def_76 (or A24 .def_75))) (let ((.def_77 (and .def_76 .def_74))) (let ((.def_78 (or .def_77 .def_73))) (let ((.def_79 (or .def_78 .def_69))) (let ((.def_80 (and .def_19 A2))) (let ((.def_81 (not .def_80))) (let ((.def_82 (and A1 A22))) (let ((.def_83 (or .def_82 .def_81))) (let ((.def_84 (not .def_83))) (let ((.def_85 (= A22 A8))) (let ((.def_86 (not A6))) (let ((.def_87 (or A11 .def_86))) (let ((.def_88 (not .def_87))) (let ((.def_89 (= .def_88 .def_85))) (let ((.def_90 (not .def_89))) (let ((.def_91 (or .def_90 .def_84))) (let ((.def_92 (not A0))) (let ((.def_93 (and .def_42 .def_92))) (let ((.def_94 (and .def_86 A10))) (let ((.def_95 (and .def_94 .def_93))) (let ((.def_96 (and .def_19 .def_92))) (let ((.def_97 (not .def_96))) (let ((.def_98 (not A1))) (let ((.def_99 (and .def_98 A11))) (let ((.def_100 (or .def_99 .def_97))) (let ((.def_101 (and .def_100 .def_95))) (let ((.def_102 (not .def_101))) (let ((.def_103 (= .def_102 .def_91))) (let ((.def_104 (not .def_103))) (let ((.def_105 (and .def_104 .def_79))) (let ((.def_106 (or .def_105 .def_56))) (let ((.def_107 (not A12))) (let ((.def_108 (not A14))) (let ((.def_109 (and .def_108 .def_107))) (let ((.def_110 (not .def_109))) (let ((.def_111 (or A2 .def_19))) (let ((.def_112 (or .def_111 .def_110))) (let ((.def_113 (not .def_112))) (let ((.def_114 (and .def_49 A5))) (let ((.def_115 (or A2 A21))) (let ((.def_116 (= .def_115 .def_114))) (let ((.def_117 (or .def_116 .def_113))) (let ((.def_118 (or .def_86 .def_107))) (let ((.def_119 (and A0 A16))) (let ((.def_120 (not .def_119))) (let ((.def_121 (and .def_120 .def_118))) (let ((.def_122 (not .def_121))) (let ((.def_123 (or .def_27 .def_75))) (let ((.def_124 (or .def_65 A18))) (let ((.def_125 (and .def_124 .def_123))) (let ((.def_126 (and .def_125 .def_122))) (let ((.def_127 (not .def_126))) (let ((.def_128 (and .def_127 .def_117))) (let ((.def_129 (not A9))) (let ((.def_130 (and A19 .def_129))) (let ((.def_131 (not .def_130))) (let ((.def_132 (or .def_62 A13))) (let ((.def_133 (not .def_132))) (let ((.def_134 (or .def_133 .def_131))) (let ((.def_135 (not .def_134))) (let ((.def_136 (or A24 A3))) (let ((.def_137 (not A23))) (let ((.def_138 (or .def_0 .def_137))) (let ((.def_139 (not .def_138))) (let ((.def_140 (and .def_139 .def_136))) (let ((.def_141 (and .def_140 .def_135))) (let ((.def_142 (and .def_49 A7))) (let ((.def_143 (not .def_142))) (let ((.def_144 (= .def_62 A11))) (let ((.def_145 (or .def_144 .def_143))) (let ((.def_146 (not .def_145))) (let ((.def_147 (or .def_137 .def_62))) (let ((.def_148 (not .def_147))) (let ((.def_149 (and A0 A17))) (let ((.def_150 (and .def_149 .def_148))) (let ((.def_151 (and .def_150 .def_146))) (let ((.def_152 (not .def_151))) (let ((.def_153 (and .def_152 .def_141))) (let ((.def_154 (not .def_153))) (let ((.def_155 (and .def_154 .def_128))) (let ((.def_156 (and .def_75 A19))) (let ((.def_157 (and A23 A5))) (let ((.def_158 (not .def_157))) (let ((.def_159 (and .def_158 .def_156))) (let ((.def_160 (or A14 A2))) (let ((.def_161 (or A1 .def_0))) (let ((.def_162 (and .def_161 .def_160))) (let ((.def_163 (= .def_162 .def_159))) (let ((.def_164 (not A10))) (let ((.def_165 (and .def_164 .def_49))) (let ((.def_166 (or .def_27 A4))) (let ((.def_167 (not .def_166))) (let ((.def_168 (= .def_167 .def_165))) (let ((.def_169 (not .def_168))) (let ((.def_170 (and .def_27 A8))) (let ((.def_171 (not .def_170))) (let ((.def_172 (or .def_34 A17))) (let ((.def_173 (not .def_172))) (let ((.def_174 (and .def_173 .def_171))) (let ((.def_175 (not .def_174))) (let ((.def_176 (or .def_175 .def_169))) (let ((.def_177 (not .def_176))) (let ((.def_178 (or .def_177 .def_163))) (let ((.def_179 (or .def_13 .def_35))) (let ((.def_180 (or .def_29 .def_34))) (let ((.def_181 (not .def_180))) (let ((.def_182 (or .def_181 .def_179))) (let ((.def_183 (= .def_107 A22))) (let ((.def_184 (and A0 A8))) (let ((.def_185 (= .def_184 .def_183))) (let ((.def_186 (not .def_185))) (let ((.def_187 (or .def_186 .def_182))) (let ((.def_188 (not .def_187))) (let ((.def_189 (and A15 .def_29))) (let ((.def_190 (or .def_137 A22))) (let ((.def_191 (and .def_190 .def_189))) (let ((.def_192 (and .def_92 A8))) (let ((.def_193 (not .def_192))) (let ((.def_194 (or .def_35 A16))) (let ((.def_195 (and .def_194 .def_193))) (let ((.def_196 (or .def_195 .def_191))) (let ((.def_197 (not .def_196))) (let ((.def_198 (= .def_197 .def_188))) (let ((.def_199 (not .def_198))) (let ((.def_200 (or .def_199 .def_178))) (let ((.def_201 (not .def_200))) (let ((.def_202 (or .def_201 .def_155))) (let ((.def_203 (and .def_202 .def_106))) (let ((.def_204 (not .def_203))) .def_204))))))))))))))))))))))))))))))))))))))))))))))))))))))))))))))))))))))))))))))))))))))))))))))))))))))))))))))))))))))))))))))))))))))))))))))))))))))))))))))))))))))))))))))))))))))))))))))))))))))))))))))
(check-sat)
